n = 60;
capacity = 100;
size = [77, 77, 76, 75, 70, 70, 69, 69, 67, 63, 62, 62, 62, 60, 59, 57, 55, 55, 54, 52, 47, 46, 46, 45, 44, 44, 42, 42, 42, 41, 41, 40, 39, 39, 39, 39, 39, 38, 37, 36, 36, 36, 35, 35, 35, 35, 34, 32, 31, 29, 28, 27, 27, 26, 25, 25, 24, 23, 22, 21];
